sat
(
  (define-fun P () String
    "")
  (define-fun I () String
    "abb")
  (define-fun V () String
    "baabaa")
  (define-fun S () String
    "a")
  (define-fun G () String
    "")
  (define-fun J () String
    "aa")
  (define-fun O () String
    "")
  (define-fun Q () String
    "aaaaaaaaabbab")
  (define-fun L () String
    "")
  (define-fun H () String
    "")
  (define-fun M () String
    "")
  (define-fun K () String
    "aaa")
)
